(set-logic QF_S)
(declare-fun var0 () String)
(declare-fun var1 () String)
(declare-fun var2 () String)
(declare-fun var3 () String)
(declare-fun var4 () Int)
(declare-fun var5 () Int)
(declare-fun var6 () Int)
(declare-fun var7 () Int)
(assert (> (str.len var0) (str.to.int "Hb&?{Gm")))
(assert (str.suffixof var1 var2))
(assert (< (str.indexof "B2b~,-m}" var3 var4) (str.indexof var1 var0)))
(assert (< var6 var7))
(check-sat)